problem_generation/data/GISP/train/er_n=65_m=1265_p=0.60_SET2_setparam=100.00_alpha=0.50_473.lp
maximize
OBJ:100x0 + 100x1 + 100x2 + 100x3 + 100x4 + 100x5 + 100x6 + 100x7 + 100x8 + 100x9 + 100x10 + 100x11 + 100x12 + 100x13 + 100x14 + 100x15 + 100x16 + 100x17 + 100x18 + 100x19 + 100x20 + 100x21 + 100x22 + 100x23 + 100x24 + 100x25 + 100x26 + 100x27 + 100x28 + 100x29 + 100x30 + 100x31 + 100x32 + 100x33 + 100x34 + 100x35 + 100x36 + 100x37 + 100x38 + 100x39 + 100x40 + 100x41 + 100x42 + 100x43 + 100x44 + 100x45 + 100x46 + 100x47 + 100x48 + 100x49 + 100x50 + 100x51 + 100x52 + 100x53 + 100x54 + 100x55 + 100x56 + 100x57 + 100x58 + 100x59 + 100x60 + 100x61 + 100x62 + 100x63 + 100x64 - y55_57 - y26_30 - y18_26 - y36_62 - y59_64 - y28_58 - y18_35 - y29_32 - y8_9 - y9_63 - y40_41 - y0_14 - y48_63 - y0_23 - y11_23 - y40_59 - y41_42 - y10_36 - y10_45 - y44_47 - y25_43 - y3_15 - y10_63 - y14_15 - y22_28 - y14_24 - y43_60 - y22_37 - y22_46 - y3_42 - y14_42 - y14_51 - y15_16 - y7_12 - y15_25 - y47_57 - y17_53 - y7_30 - y9_49 - y18_30 - y17_62 - y28_62 - y6_34 - y21_32 - y29_45 - y40_45 - y48_58 - y6_52 - y40_63 - y21_59 - y10_22 - y25_29 - y10_40 - y44_51 - y32_55 - y14_28 - y24_60 - y14_37 - y55_56 - y17_39 - y36_52 - y17_48 - y5_55 - y28_57 - y5_64 - y9_62 - y6_47 - y21_45 - y40_58 - y21_54 - y39_62 - y62_64 - y2_22 - y33_37 - y10_44 - y12_63 - y32_41 - y43_50 - y13_46 - y24_55 - y13_64 - y17_43 - y6_15 - y5_59 - y58_62 - y21_22 - y40_44 - y21_49 - y10_21 - y39_57 - y10_30 - y2_35 - y24_32 - y43_45 - y35_41 - y14_18 - y32_54 - y1_48 - y43_63 - y16_46 - y1_57 - y9_43 - y6_19 - y9_61 - y21_26 - y27_60 - y6_37 - y6_46 - y2_3 - y20_39 - y10_16 - y20_48 - y39_61 - y12_44 - y20_57 - y54_59 - y12_53 - y4_49 - y32_40 - y24_36 - y43_49 - y16_32 - y35_45 - y32_58 - y16_41 - y43_58 - y13_63 - y24_63 - y9_11 - y28_33 - y5_49 - y6_14 - y5_58 - y8_60 - y0_56 - y11_56 - y10_11 - y39_47 - y31_52 - y20_61 - y31_61 - y32_35 - y24_31 - y32_44 - y16_27 - y43_44 - y13_40 - y43_53 - y1_47 - y24_49 - y35_49 - y1_56 - y35_58 - y9_15 - y38_51 - y49_51 - y57_64 - y9_24 - y38_60 - y17_37 - y27_41 - y27_50 - y27_59 - y0_51 - y23_34 - y20_47 - y39_60 - y31_56 - y23_52 - y13_26 - y53_62 - y34_58 - y13_35 - y16_49 - y5_12 - y46_59 - y9_19 - y38_55 - y49_55 - y7_58 - y18_58 - y27_36 - y19_41 - y42_43 - y0_37 - y11_37 - y19_50 - y42_52 - y0_46 - y30_59 - y20_24 - y0_64 - y11_64 - y23_29 - y20_42 - y39_46 - y20_51 - y4_34 - y53_57 - y13_30 - y4_61 - y1_37 - y37_58 - y5_7 - y38_41 - y9_14 - y15_48 - y26_48 - y46_63 - y57_63 - y8_36 - y19_36 - y11_32 - y0_41 - y19_54 - y30_54 - y42_56 - y12_15 - y11_59 - y52_60 - y20_37 - y4_29 - y4_47 - y24_25 - y34_57 - y45_57 - y16_30 - y22_64 - y14_60 - y15_34 - y26_34 - y5_11 - y38_45 - y46_58 - y7_39 - y18_48 - y15_61 - y27_35 - y0_18 - y19_31 - y0_27 - y30_40 - y30_49 - y12_19 - y31_32 - y12_28 - y52_64 - y12_37 - y1_9 - y2_63 - y34_43 - y53_56 - y37_39 - y3_46 - y14_46 - y37_48 - y45_61 - y37_57 - y3_64 - y14_64 - y15_29 - y26_29 - y7_34 - y15_47 - y38_49 - y15_56 - y0_13 - y18_61 - y8_26 - y48_62 - y30_35 - y30_44 - y41_50 - y33_46 - y44_46 - y52_59 - y4_28 - y1_4 - y2_58 - y22_36 - y3_32 - y22_45 - y22_54 - y3_50 - y37_52 - y3_59 - y37_61 - y18_20 - y15_33 - y26_42 - y18_38 - y18_47 - y8_12 - y18_56 - y40_62 - y63_64 - y11_35 - y41_45 - y33_50 - y25_46 - y10_57 - y33_59 - y2_53 - y3_27 - y22_40 - y37_38 - y22_49 - y22_58 - y14_54 - y37_56 - y14_63 - y26_28 - y36_60 - y18_33 - y8_16 - y0_12 - y19_25 - y29_57 - y21_53 - y21_62 - y10_34 - y4_9 - y10_43 - y33_45 - y2_39 - y41_58 - y10_52 - y44_54 - y33_63 - y44_63 - y51_62 - y2_57 - y14_22 - y22_44 - y37_42 - y3_49 - y15_23 - y18_19 - y17_51 - y28_51 - y7_28 - y29_34 - y6_41 - y29_43 - y0_16 - y6_50 - y40_52 - y10_29 - y33_40 - y33_49 - y2_43 - y2_52 - y14_17 - y3_26 - y14_26 - y32_62 - y3_44 - y47_50 - y55_63 - y17_46 - y28_46 - y18_23 - y9_60 - y0_2 - y6_36 - y29_38 - y40_47 - y21_43 - y10_15 - y21_61 - y2_29 - y2_47 - y3_12 - y22_25 - y2_56 - y14_21 - y13_53 - y16_58 - y7_9 - y36_45 - y55_58 - y17_41 - y9_46 - y5_57 - y6_22 - y17_59 - y29_42 - y40_51 - y39_55 - y10_28 - y39_64 - y25_35 - y24_39 - y14_16 - y13_48 - y24_48 - y14_25 - y32_61 - y16_53 - y36_40 - y9_23 - y6_8 - y9_41 - y17_54 - y9_50 - y5_61 - y6_26 - y58_64 - y21_24 - y50_60 - y2_10 - y20_46 - y31_46 - y20_55 - y31_55 - y10_32 - y12_51 - y23_51 - y20_64 - y4_56 - y13_34 - y13_43 - y24_43 - y35_43 - y16_39 - y43_56 - y13_52 - y1_59 - y13_61 - y24_61 - y16_57 - y35_61 - y17_31 - y9_27 - y5_38 - y9_36 - y9_54 - y21_28 - y11_63 - y39_63 - y4_42 - y13_20 - y1_27 - y24_29 - y16_25 - y35_38 - y16_34 - y24_47 - y13_56 - y16_52 - y46_53 - y9_13 - y46_62 - y36_39 - y9_22 - y49_58 - y9_31 - y28_44 - y27_48 - y58_63 - y42_46 - y8_53 - y19_53 - y30_53 - y30_62 - y42_64 - y31_36 - y23_41 - y31_54 - y4_37 - y13_15 - y12_59 - y13_24 - y53_60 - y16_20 - y32_46 - y16_29 - y43_46 - y16_38 - y38_44 - y46_57 - y9_17 - y9_26 - y26_60 - y5_37 - y38_62 - y27_34 - y6_20 - y8_48 - y30_48 - y11_44 - y8_57 - y12_18 - y39_44 - y2_4 - y31_40 - y39_53 - y31_49 - y4_32 - y1_8 - y4_41 - y4_50 - y1_26 - y45_60 - y13_37 - y16_42 - y46_52 - y38_48 - y49_57 - y7_51 - y8_25 - y27_47 - y0_30 - y8_43 - y19_43 - y27_56 - y11_39 - y42_45 - y19_52 - y42_54 - y0_48 - y12_13 - y20_26 - y20_35 - y4_27 - y12_40 - y1_3 - y23_40 - y4_36 - y4_45 - y34_46 - y53_59 - y22_62 - y1_39 - y14_58 - y37_60 - y46_47 - y15_41 - y38_43 - y5_18 - y46_56 - y26_59 - y38_61 - y7_64 - y19_56 - y41_53 - y20_30 - y0_61 - y41_62 - y31_39 - y33_58 - y4_31 - y23_44 - y1_7 - y4_40 - y53_54 - y14_53 - y37_55 - y15_27 - y18_32 - y49_56 - y18_50 - y8_15 - y27_28 - y0_11 - y7_59 - y19_24 - y27_37 - y19_33 - y30_42 - y11_47 - y20_25 - y4_8 - y44_62 - y25_58 - y34_36 - y34_45 - y53_58 - y45_54 - y14_48 - y37_50 - y45_63 - y3_57 - y14_57 - y15_22 - y37_59 - y7_18 - y7_27 - y26_40 - y26_49 - y18_45 - y8_10 - y0_6 - y27_32 - y48_64 - y21_56 - y11_42 - y41_61 - y25_44 - y52_61 - y10_64 - y22_47 - y22_56 - y3_52 - y7_22 - y7_31 - y15_44 - y26_44 - y7_40 - y0_1 - y40_46 - y30_32 - y6_62 - y11_28 - y41_47 - y10_50 - y10_59 - y33_61 - y34_35 - y37_40 - y37_49 - y7_8
 Subject to
C1: x0+x1-y0_1 <=1 
C2: x0+x2-y0_2 <=1 
C3: x0+x3 <=1 
C4: x0+x4 <=1 
C5: x0+x6-y0_6 <=1 
C6: x0+x7 <=1 
C7: x0+x8 <=1 
C8: x0+x11-y0_11 <=1 
C9: x0+x12-y0_12 <=1 
C10: x0+x13-y0_13 <=1 
C11: x0+x14-y0_14 <=1 
C12: x0+x16-y0_16 <=1 
C13: x0+x17 <=1 
C14: x0+x18-y0_18 <=1 
C15: x0+x22 <=1 
C16: x0+x23-y0_23 <=1 
C17: x0+x27-y0_27 <=1 
C18: x0+x29 <=1 
C19: x0+x30-y0_30 <=1 
C20: x0+x31 <=1 
C21: x0+x32 <=1 
C22: x0+x33 <=1 
C23: x0+x36 <=1 
C24: x0+x37-y0_37 <=1 
C25: x0+x38 <=1 
C26: x0+x39 <=1 
C27: x0+x40 <=1 
C28: x0+x41-y0_41 <=1 
C29: x0+x42 <=1 
C30: x0+x43 <=1 
C31: x0+x44 <=1 
C32: x0+x46-y0_46 <=1 
C33: x0+x47 <=1 
C34: x0+x48-y0_48 <=1 
C35: x0+x51-y0_51 <=1 
C36: x0+x53 <=1 
C37: x0+x54 <=1 
C38: x0+x56-y0_56 <=1 
C39: x0+x57 <=1 
C40: x0+x59 <=1 
C41: x0+x60 <=1 
C42: x0+x61-y0_61 <=1 
C43: x0+x64-y0_64 <=1 
C44: x1+x2 <=1 
C45: x1+x3-y1_3 <=1 
C46: x1+x4-y1_4 <=1 
C47: x1+x5 <=1 
C48: x1+x6 <=1 
C49: x1+x7-y1_7 <=1 
C50: x1+x8-y1_8 <=1 
C51: x1+x9-y1_9 <=1 
C52: x1+x11 <=1 
C53: x1+x12 <=1 
C54: x1+x13 <=1 
C55: x1+x14 <=1 
C56: x1+x16 <=1 
C57: x1+x18 <=1 
C58: x1+x26-y1_26 <=1 
C59: x1+x27-y1_27 <=1 
C60: x1+x29 <=1 
C61: x1+x33 <=1 
C62: x1+x36 <=1 
C63: x1+x37-y1_37 <=1 
C64: x1+x38 <=1 
C65: x1+x39-y1_39 <=1 
C66: x1+x41 <=1 
C67: x1+x43 <=1 
C68: x1+x46 <=1 
C69: x1+x47-y1_47 <=1 
C70: x1+x48-y1_48 <=1 
C71: x1+x49 <=1 
C72: x1+x50 <=1 
C73: x1+x51 <=1 
C74: x1+x53 <=1 
C75: x1+x56-y1_56 <=1 
C76: x1+x57-y1_57 <=1 
C77: x1+x59-y1_59 <=1 
C78: x1+x61 <=1 
C79: x1+x63 <=1 
C80: x2+x3-y2_3 <=1 
C81: x2+x4-y2_4 <=1 
C82: x2+x6 <=1 
C83: x2+x8 <=1 
C84: x2+x9 <=1 
C85: x2+x10-y2_10 <=1 
C86: x2+x13 <=1 
C87: x2+x18 <=1 
C88: x2+x22-y2_22 <=1 
C89: x2+x27 <=1 
C90: x2+x29-y2_29 <=1 
C91: x2+x30 <=1 
C92: x2+x32 <=1 
C93: x2+x34 <=1 
C94: x2+x35-y2_35 <=1 
C95: x2+x39-y2_39 <=1 
C96: x2+x41 <=1 
C97: x2+x43-y2_43 <=1 
C98: x2+x44 <=1 
C99: x2+x47-y2_47 <=1 
C100: x2+x49 <=1 
C101: x2+x52-y2_52 <=1 
C102: x2+x53-y2_53 <=1 
C103: x2+x54 <=1 
C104: x2+x55 <=1 
C105: x2+x56-y2_56 <=1 
C106: x2+x57-y2_57 <=1 
C107: x2+x58-y2_58 <=1 
C108: x2+x61 <=1 
C109: x2+x62 <=1 
C110: x2+x63-y2_63 <=1 
C111: x3+x5 <=1 
C112: x3+x6 <=1 
C113: x3+x7 <=1 
C114: x3+x8 <=1 
C115: x3+x9 <=1 
C116: x3+x11 <=1 
C117: x3+x12-y3_12 <=1 
C118: x3+x14 <=1 
C119: x3+x15-y3_15 <=1 
C120: x3+x16 <=1 
C121: x3+x17 <=1 
C122: x3+x18 <=1 
C123: x3+x20 <=1 
C124: x3+x21 <=1 
C125: x3+x22 <=1 
C126: x3+x25 <=1 
C127: x3+x26-y3_26 <=1 
C128: x3+x27-y3_27 <=1 
C129: x3+x32-y3_32 <=1 
C130: x3+x34 <=1 
C131: x3+x38 <=1 
C132: x3+x40 <=1 
C133: x3+x42-y3_42 <=1 
C134: x3+x44-y3_44 <=1 
C135: x3+x45 <=1 
C136: x3+x46-y3_46 <=1 
C137: x3+x47 <=1 
C138: x3+x48 <=1 
C139: x3+x49-y3_49 <=1 
C140: x3+x50-y3_50 <=1 
C141: x3+x51 <=1 
C142: x3+x52-y3_52 <=1 
C143: x3+x54 <=1 
C144: x3+x57-y3_57 <=1 
C145: x3+x59-y3_59 <=1 
C146: x3+x61 <=1 
C147: x3+x63 <=1 
C148: x3+x64-y3_64 <=1 
C149: x4+x5 <=1 
C150: x4+x6 <=1 
C151: x4+x8-y4_8 <=1 
C152: x4+x9-y4_9 <=1 
C153: x4+x12 <=1 
C154: x4+x14 <=1 
C155: x4+x15 <=1 
C156: x4+x16 <=1 
C157: x4+x18 <=1 
C158: x4+x19 <=1 
C159: x4+x21 <=1 
C160: x4+x22 <=1 
C161: x4+x23 <=1 
C162: x4+x24 <=1 
C163: x4+x25 <=1 
C164: x4+x27-y4_27 <=1 
C165: x4+x28-y4_28 <=1 
C166: x4+x29-y4_29 <=1 
C167: x4+x30 <=1 
C168: x4+x31-y4_31 <=1 
C169: x4+x32-y4_32 <=1 
C170: x4+x34-y4_34 <=1 
C171: x4+x36-y4_36 <=1 
C172: x4+x37-y4_37 <=1 
C173: x4+x38 <=1 
C174: x4+x40-y4_40 <=1 
C175: x4+x41-y4_41 <=1 
C176: x4+x42-y4_42 <=1 
C177: x4+x43 <=1 
C178: x4+x45-y4_45 <=1 
C179: x4+x46 <=1 
C180: x4+x47-y4_47 <=1 
C181: x4+x48 <=1 
C182: x4+x49-y4_49 <=1 
C183: x4+x50-y4_50 <=1 
C184: x4+x56-y4_56 <=1 
C185: x4+x61-y4_61 <=1 
C186: x4+x62 <=1 
C187: x5+x7-y5_7 <=1 
C188: x5+x8 <=1 
C189: x5+x10 <=1 
C190: x5+x11-y5_11 <=1 
C191: x5+x12-y5_12 <=1 
C192: x5+x15 <=1 
C193: x5+x18-y5_18 <=1 
C194: x5+x19 <=1 
C195: x5+x21 <=1 
C196: x5+x22 <=1 
C197: x5+x23 <=1 
C198: x5+x25 <=1 
C199: x5+x26 <=1 
C200: x5+x27 <=1 
C201: x5+x28 <=1 
C202: x5+x32 <=1 
C203: x5+x37-y5_37 <=1 
C204: x5+x38-y5_38 <=1 
C205: x5+x39 <=1 
C206: x5+x42 <=1 
C207: x5+x44 <=1 
C208: x5+x45 <=1 
C209: x5+x47 <=1 
C210: x5+x49-y5_49 <=1 
C211: x5+x50 <=1 
C212: x5+x53 <=1 
C213: x5+x55-y5_55 <=1 
C214: x5+x57-y5_57 <=1 
C215: x5+x58-y5_58 <=1 
C216: x5+x59-y5_59 <=1 
C217: x5+x61-y5_61 <=1 
C218: x5+x62 <=1 
C219: x5+x63 <=1 
C220: x5+x64-y5_64 <=1 
C221: x6+x7 <=1 
C222: x6+x8-y6_8 <=1 
C223: x6+x12 <=1 
C224: x6+x13 <=1 
C225: x6+x14-y6_14 <=1 
C226: x6+x15-y6_15 <=1 
C227: x6+x17 <=1 
C228: x6+x18 <=1 
C229: x6+x19-y6_19 <=1 
C230: x6+x20-y6_20 <=1 
C231: x6+x21 <=1 
C232: x6+x22-y6_22 <=1 
C233: x6+x23 <=1 
C234: x6+x26-y6_26 <=1 
C235: x6+x30 <=1 
C236: x6+x34-y6_34 <=1 
C237: x6+x36-y6_36 <=1 
C238: x6+x37-y6_37 <=1 
C239: x6+x38 <=1 
C240: x6+x41-y6_41 <=1 
C241: x6+x42 <=1 
C242: x6+x46-y6_46 <=1 
C243: x6+x47-y6_47 <=1 
C244: x6+x50-y6_50 <=1 
C245: x6+x52-y6_52 <=1 
C246: x6+x58 <=1 
C247: x6+x60 <=1 
C248: x6+x61 <=1 
C249: x6+x62-y6_62 <=1 
C250: x7+x8-y7_8 <=1 
C251: x7+x9-y7_9 <=1 
C252: x7+x10 <=1 
C253: x7+x12-y7_12 <=1 
C254: x7+x14 <=1 
C255: x7+x17 <=1 
C256: x7+x18-y7_18 <=1 
C257: x7+x20 <=1 
C258: x7+x22-y7_22 <=1 
C259: x7+x23 <=1 
C260: x7+x27-y7_27 <=1 
C261: x7+x28-y7_28 <=1 
C262: x7+x30-y7_30 <=1 
C263: x7+x31-y7_31 <=1 
C264: x7+x34-y7_34 <=1 
C265: x7+x38 <=1 
C266: x7+x39-y7_39 <=1 
C267: x7+x40-y7_40 <=1 
C268: x7+x48 <=1 
C269: x7+x49 <=1 
C270: x7+x50 <=1 
C271: x7+x51-y7_51 <=1 
C272: x7+x54 <=1 
C273: x7+x58-y7_58 <=1 
C274: x7+x59-y7_59 <=1 
C275: x7+x60 <=1 
C276: x7+x62 <=1 
C277: x7+x64-y7_64 <=1 
C278: x8+x9-y8_9 <=1 
C279: x8+x10-y8_10 <=1 
C280: x8+x11 <=1 
C281: x8+x12-y8_12 <=1 
C282: x8+x13 <=1 
C283: x8+x15-y8_15 <=1 
C284: x8+x16-y8_16 <=1 
C285: x8+x18 <=1 
C286: x8+x19 <=1 
C287: x8+x23 <=1 
C288: x8+x24 <=1 
C289: x8+x25-y8_25 <=1 
C290: x8+x26-y8_26 <=1 
C291: x8+x28 <=1 
C292: x8+x31 <=1 
C293: x8+x33 <=1 
C294: x8+x35 <=1 
C295: x8+x36-y8_36 <=1 
C296: x8+x37 <=1 
C297: x8+x38 <=1 
C298: x8+x39 <=1 
C299: x8+x41 <=1 
C300: x8+x43-y8_43 <=1 
C301: x8+x45 <=1 
C302: x8+x46 <=1 
C303: x8+x48-y8_48 <=1 
C304: x8+x50 <=1 
C305: x8+x51 <=1 
C306: x8+x53-y8_53 <=1 
C307: x8+x56 <=1 
C308: x8+x57-y8_57 <=1 
C309: x8+x60-y8_60 <=1 
C310: x8+x61 <=1 
C311: x8+x62 <=1 
C312: x8+x63 <=1 
C313: x9+x10 <=1 
C314: x9+x11-y9_11 <=1 
C315: x9+x12 <=1 
C316: x9+x13-y9_13 <=1 
C317: x9+x14-y9_14 <=1 
C318: x9+x15-y9_15 <=1 
C319: x9+x17-y9_17 <=1 
C320: x9+x19-y9_19 <=1 
C321: x9+x21 <=1 
C322: x9+x22-y9_22 <=1 
C323: x9+x23-y9_23 <=1 
C324: x9+x24-y9_24 <=1 
C325: x9+x25 <=1 
C326: x9+x26-y9_26 <=1 
C327: x9+x27-y9_27 <=1 
C328: x9+x31-y9_31 <=1 
C329: x9+x32 <=1 
C330: x9+x33 <=1 
C331: x9+x35 <=1 
C332: x9+x36-y9_36 <=1 
C333: x9+x39 <=1 
C334: x9+x41-y9_41 <=1 
C335: x9+x42 <=1 
C336: x9+x43-y9_43 <=1 
C337: x9+x46-y9_46 <=1 
C338: x9+x47 <=1 
C339: x9+x49-y9_49 <=1 
C340: x9+x50-y9_50 <=1 
C341: x9+x51 <=1 
C342: x9+x53 <=1 
C343: x9+x54-y9_54 <=1 
C344: x9+x58 <=1 
C345: x9+x59 <=1 
C346: x9+x60-y9_60 <=1 
C347: x9+x61-y9_61 <=1 
C348: x9+x62-y9_62 <=1 
C349: x9+x63-y9_63 <=1 
C350: x9+x64 <=1 
C351: x10+x11-y10_11 <=1 
C352: x10+x14 <=1 
C353: x10+x15-y10_15 <=1 
C354: x10+x16-y10_16 <=1 
C355: x10+x19 <=1 
C356: x10+x20 <=1 
C357: x10+x21-y10_21 <=1 
C358: x10+x22-y10_22 <=1 
C359: x10+x23 <=1 
C360: x10+x24 <=1 
C361: x10+x26 <=1 
C362: x10+x27 <=1 
C363: x10+x28-y10_28 <=1 
C364: x10+x29-y10_29 <=1 
C365: x10+x30-y10_30 <=1 
C366: x10+x32-y10_32 <=1 
C367: x10+x33 <=1 
C368: x10+x34-y10_34 <=1 
C369: x10+x35 <=1 
C370: x10+x36-y10_36 <=1 
C371: x10+x37 <=1 
C372: x10+x38 <=1 
C373: x10+x39 <=1 
C374: x10+x40-y10_40 <=1 
C375: x10+x41 <=1 
C376: x10+x43-y10_43 <=1 
C377: x10+x44-y10_44 <=1 
C378: x10+x45-y10_45 <=1 
C379: x10+x46 <=1 
C380: x10+x47 <=1 
C381: x10+x48 <=1 
C382: x10+x50-y10_50 <=1 
C383: x10+x52-y10_52 <=1 
C384: x10+x54 <=1 
C385: x10+x56 <=1 
C386: x10+x57-y10_57 <=1 
C387: x10+x59-y10_59 <=1 
C388: x10+x62 <=1 
C389: x10+x63-y10_63 <=1 
C390: x10+x64-y10_64 <=1 
C391: x11+x14 <=1 
C392: x11+x16 <=1 
C393: x11+x19 <=1 
C394: x11+x23-y11_23 <=1 
C395: x11+x26 <=1 
C396: x11+x27 <=1 
C397: x11+x28-y11_28 <=1 
C398: x11+x32-y11_32 <=1 
C399: x11+x35-y11_35 <=1 
C400: x11+x37-y11_37 <=1 
C401: x11+x39-y11_39 <=1 
C402: x11+x40 <=1 
C403: x11+x42-y11_42 <=1 
C404: x11+x43 <=1 
C405: x11+x44-y11_44 <=1 
C406: x11+x46 <=1 
C407: x11+x47-y11_47 <=1 
C408: x11+x48 <=1 
C409: x11+x49 <=1 
C410: x11+x52 <=1 
C411: x11+x53 <=1 
C412: x11+x54 <=1 
C413: x11+x56-y11_56 <=1 
C414: x11+x58 <=1 
C415: x11+x59-y11_59 <=1 
C416: x11+x62 <=1 
C417: x11+x63-y11_63 <=1 
C418: x11+x64-y11_64 <=1 
C419: x12+x13-y12_13 <=1 
C420: x12+x15-y12_15 <=1 
C421: x12+x17 <=1 
C422: x12+x18-y12_18 <=1 
C423: x12+x19-y12_19 <=1 
C424: x12+x21 <=1 
C425: x12+x23 <=1 
C426: x12+x26 <=1 
C427: x12+x28-y12_28 <=1 
C428: x12+x31 <=1 
C429: x12+x32 <=1 
C430: x12+x33 <=1 
C431: x12+x34 <=1 
C432: x12+x36 <=1 
C433: x12+x37-y12_37 <=1 
C434: x12+x38 <=1 
C435: x12+x40-y12_40 <=1 
C436: x12+x42 <=1 
C437: x12+x43 <=1 
C438: x12+x44-y12_44 <=1 
C439: x12+x46 <=1 
C440: x12+x47 <=1 
C441: x12+x51-y12_51 <=1 
C442: x12+x53-y12_53 <=1 
C443: x12+x54 <=1 
C444: x12+x55 <=1 
C445: x12+x58 <=1 
C446: x12+x59-y12_59 <=1 
C447: x12+x63-y12_63 <=1 
C448: x13+x15-y13_15 <=1 
C449: x13+x17 <=1 
C450: x13+x19 <=1 
C451: x13+x20-y13_20 <=1 
C452: x13+x22 <=1 
C453: x13+x24-y13_24 <=1 
C454: x13+x25 <=1 
C455: x13+x26-y13_26 <=1 
C456: x13+x28 <=1 
C457: x13+x30-y13_30 <=1 
C458: x13+x31 <=1 
C459: x13+x33 <=1 
C460: x13+x34-y13_34 <=1 
C461: x13+x35-y13_35 <=1 
C462: x13+x36 <=1 
C463: x13+x37-y13_37 <=1 
C464: x13+x38 <=1 
C465: x13+x40-y13_40 <=1 
C466: x13+x43-y13_43 <=1 
C467: x13+x45 <=1 
C468: x13+x46-y13_46 <=1 
C469: x13+x47 <=1 
C470: x13+x48-y13_48 <=1 
C471: x13+x50 <=1 
C472: x13+x52-y13_52 <=1 
C473: x13+x53-y13_53 <=1 
C474: x13+x56-y13_56 <=1 
C475: x13+x58 <=1 
C476: x13+x59 <=1 
C477: x13+x60 <=1 
C478: x13+x61-y13_61 <=1 
C479: x13+x62 <=1 
C480: x13+x63-y13_63 <=1 
C481: x13+x64-y13_64 <=1 
C482: x14+x15-y14_15 <=1 
C483: x14+x16-y14_16 <=1 
C484: x14+x17-y14_17 <=1 
C485: x14+x18-y14_18 <=1 
C486: x14+x21-y14_21 <=1 
C487: x14+x22-y14_22 <=1 
C488: x14+x23 <=1 
C489: x14+x24-y14_24 <=1 
C490: x14+x25-y14_25 <=1 
C491: x14+x26-y14_26 <=1 
C492: x14+x28-y14_28 <=1 
C493: x14+x30 <=1 
C494: x14+x31 <=1 
C495: x14+x33 <=1 
C496: x14+x36 <=1 
C497: x14+x37-y14_37 <=1 
C498: x14+x38 <=1 
C499: x14+x42-y14_42 <=1 
C500: x14+x45 <=1 
C501: x14+x46-y14_46 <=1 
C502: x14+x47 <=1 
C503: x14+x48-y14_48 <=1 
C504: x14+x49 <=1 
C505: x14+x50 <=1 
C506: x14+x51-y14_51 <=1 
C507: x14+x52 <=1 
C508: x14+x53-y14_53 <=1 
C509: x14+x54-y14_54 <=1 
C510: x14+x57-y14_57 <=1 
C511: x14+x58-y14_58 <=1 
C512: x14+x59 <=1 
C513: x14+x60-y14_60 <=1 
C514: x14+x61 <=1 
C515: x14+x62 <=1 
C516: x14+x63-y14_63 <=1 
C517: x14+x64-y14_64 <=1 
C518: x15+x16-y15_16 <=1 
C519: x15+x18 <=1 
C520: x15+x19 <=1 
C521: x15+x21 <=1 
C522: x15+x22-y15_22 <=1 
C523: x15+x23-y15_23 <=1 
C524: x15+x24 <=1 
C525: x15+x25-y15_25 <=1 
C526: x15+x27-y15_27 <=1 
C527: x15+x29-y15_29 <=1 
C528: x15+x32 <=1 
C529: x15+x33-y15_33 <=1 
C530: x15+x34-y15_34 <=1 
C531: x15+x38 <=1 
C532: x15+x39 <=1 
C533: x15+x41-y15_41 <=1 
C534: x15+x42 <=1 
C535: x15+x43 <=1 
C536: x15+x44-y15_44 <=1 
C537: x15+x47-y15_47 <=1 
C538: x15+x48-y15_48 <=1 
C539: x15+x50 <=1 
C540: x15+x53 <=1 
C541: x15+x55 <=1 
C542: x15+x56-y15_56 <=1 
C543: x15+x59 <=1 
C544: x15+x61-y15_61 <=1 
C545: x15+x63 <=1 
C546: x15+x64 <=1 
C547: x16+x18 <=1 
C548: x16+x20-y16_20 <=1 
C549: x16+x22 <=1 
C550: x16+x23 <=1 
C551: x16+x24 <=1 
C552: x16+x25-y16_25 <=1 
C553: x16+x27-y16_27 <=1 
C554: x16+x28 <=1 
C555: x16+x29-y16_29 <=1 
C556: x16+x30-y16_30 <=1 
C557: x16+x32-y16_32 <=1 
C558: x16+x33 <=1 
C559: x16+x34-y16_34 <=1 
C560: x16+x35 <=1 
C561: x16+x36 <=1 
C562: x16+x38-y16_38 <=1 
C563: x16+x39-y16_39 <=1 
C564: x16+x41-y16_41 <=1 
C565: x16+x42-y16_42 <=1 
C566: x16+x43 <=1 
C567: x16+x44 <=1 
C568: x16+x46-y16_46 <=1 
C569: x16+x48 <=1 
C570: x16+x49-y16_49 <=1 
C571: x16+x52-y16_52 <=1 
C572: x16+x53-y16_53 <=1 
C573: x16+x54 <=1 
C574: x16+x55 <=1 
C575: x16+x56 <=1 
C576: x16+x57-y16_57 <=1 
C577: x16+x58-y16_58 <=1 
C578: x16+x59 <=1 
C579: x16+x60 <=1 
C580: x16+x62 <=1 
C581: x16+x63 <=1 
C582: x17+x19 <=1 
C583: x17+x21 <=1 
C584: x17+x23 <=1 
C585: x17+x28 <=1 
C586: x17+x29 <=1 
C587: x17+x31-y17_31 <=1 
C588: x17+x34 <=1 
C589: x17+x36 <=1 
C590: x17+x37-y17_37 <=1 
C591: x17+x38 <=1 
C592: x17+x39-y17_39 <=1 
C593: x17+x41-y17_41 <=1 
C594: x17+x42 <=1 
C595: x17+x43-y17_43 <=1 
C596: x17+x46-y17_46 <=1 
C597: x17+x47 <=1 
C598: x17+x48-y17_48 <=1 
C599: x17+x49 <=1 
C600: x17+x50 <=1 
C601: x17+x51-y17_51 <=1 
C602: x17+x53-y17_53 <=1 
C603: x17+x54-y17_54 <=1 
C604: x17+x58 <=1 
C605: x17+x59-y17_59 <=1 
C606: x17+x62-y17_62 <=1 
C607: x17+x63 <=1 
C608: x18+x19-y18_19 <=1 
C609: x18+x20-y18_20 <=1 
C610: x18+x21 <=1 
C611: x18+x23-y18_23 <=1 
C612: x18+x24 <=1 
C613: x18+x25 <=1 
C614: x18+x26-y18_26 <=1 
C615: x18+x27 <=1 
C616: x18+x29 <=1 
C617: x18+x30-y18_30 <=1 
C618: x18+x32-y18_32 <=1 
C619: x18+x33-y18_33 <=1 
C620: x18+x35-y18_35 <=1 
C621: x18+x36 <=1 
C622: x18+x38-y18_38 <=1 
C623: x18+x39 <=1 
C624: x18+x41 <=1 
C625: x18+x42 <=1 
C626: x18+x43 <=1 
C627: x18+x45-y18_45 <=1 
C628: x18+x46 <=1 
C629: x18+x47-y18_47 <=1 
C630: x18+x48-y18_48 <=1 
C631: x18+x49 <=1 
C632: x18+x50-y18_50 <=1 
C633: x18+x51 <=1 
C634: x18+x52 <=1 
C635: x18+x53 <=1 
C636: x18+x54 <=1 
C637: x18+x56-y18_56 <=1 
C638: x18+x57 <=1 
C639: x18+x58-y18_58 <=1 
C640: x18+x59 <=1 
C641: x18+x60 <=1 
C642: x18+x61-y18_61 <=1 
C643: x18+x62 <=1 
C644: x18+x63 <=1 
C645: x19+x23 <=1 
C646: x19+x24-y19_24 <=1 
C647: x19+x25-y19_25 <=1 
C648: x19+x27 <=1 
C649: x19+x31-y19_31 <=1 
C650: x19+x33-y19_33 <=1 
C651: x19+x35 <=1 
C652: x19+x36-y19_36 <=1 
C653: x19+x39 <=1 
C654: x19+x40 <=1 
C655: x19+x41-y19_41 <=1 
C656: x19+x43-y19_43 <=1 
C657: x19+x44 <=1 
C658: x19+x47 <=1 
C659: x19+x50-y19_50 <=1 
C660: x19+x51 <=1 
C661: x19+x52-y19_52 <=1 
C662: x19+x53-y19_53 <=1 
C663: x19+x54-y19_54 <=1 
C664: x19+x55 <=1 
C665: x19+x56-y19_56 <=1 
C666: x19+x58 <=1 
C667: x19+x60 <=1 
C668: x19+x64 <=1 
C669: x20+x22 <=1 
C670: x20+x23 <=1 
C671: x20+x24-y20_24 <=1 
C672: x20+x25-y20_25 <=1 
C673: x20+x26-y20_26 <=1 
C674: x20+x29 <=1 
C675: x20+x30-y20_30 <=1 
C676: x20+x34 <=1 
C677: x20+x35-y20_35 <=1 
C678: x20+x37-y20_37 <=1 
C679: x20+x39-y20_39 <=1 
C680: x20+x42-y20_42 <=1 
C681: x20+x43 <=1 
C682: x20+x44 <=1 
C683: x20+x45 <=1 
C684: x20+x46-y20_46 <=1 
C685: x20+x47-y20_47 <=1 
C686: x20+x48-y20_48 <=1 
C687: x20+x50 <=1 
C688: x20+x51-y20_51 <=1 
C689: x20+x53 <=1 
C690: x20+x55-y20_55 <=1 
C691: x20+x57-y20_57 <=1 
C692: x20+x61-y20_61 <=1 
C693: x20+x63 <=1 
C694: x20+x64-y20_64 <=1 
C695: x21+x22-y21_22 <=1 
C696: x21+x24-y21_24 <=1 
C697: x21+x26-y21_26 <=1 
C698: x21+x27 <=1 
C699: x21+x28-y21_28 <=1 
C700: x21+x29 <=1 
C701: x21+x32-y21_32 <=1 
C702: x21+x39 <=1 
C703: x21+x40 <=1 
C704: x21+x43-y21_43 <=1 
C705: x21+x44 <=1 
C706: x21+x45-y21_45 <=1 
C707: x21+x49-y21_49 <=1 
C708: x21+x53-y21_53 <=1 
C709: x21+x54-y21_54 <=1 
C710: x21+x56-y21_56 <=1 
C711: x21+x57 <=1 
C712: x21+x58 <=1 
C713: x21+x59-y21_59 <=1 
C714: x21+x61-y21_61 <=1 
C715: x21+x62-y21_62 <=1 
C716: x21+x64 <=1 
C717: x22+x23 <=1 
C718: x22+x25-y22_25 <=1 
C719: x22+x26 <=1 
C720: x22+x27 <=1 
C721: x22+x28-y22_28 <=1 
C722: x22+x34 <=1 
C723: x22+x35 <=1 
C724: x22+x36-y22_36 <=1 
C725: x22+x37-y22_37 <=1 
C726: x22+x38 <=1 
C727: x22+x39 <=1 
C728: x22+x40-y22_40 <=1 
C729: x22+x41 <=1 
C730: x22+x43 <=1 
C731: x22+x44-y22_44 <=1 
C732: x22+x45-y22_45 <=1 
C733: x22+x46-y22_46 <=1 
C734: x22+x47-y22_47 <=1 
C735: x22+x49-y22_49 <=1 
C736: x22+x52 <=1 
C737: x22+x54-y22_54 <=1 
C738: x22+x55 <=1 
C739: x22+x56-y22_56 <=1 
C740: x22+x58-y22_58 <=1 
C741: x22+x59 <=1 
C742: x22+x62-y22_62 <=1 
C743: x22+x63 <=1 
C744: x22+x64-y22_64 <=1 
C745: x23+x24 <=1 
C746: x23+x29-y23_29 <=1 
C747: x23+x32 <=1 
C748: x23+x34-y23_34 <=1 
C749: x23+x39 <=1 
C750: x23+x40-y23_40 <=1 
C751: x23+x41-y23_41 <=1 
C752: x23+x44-y23_44 <=1 
C753: x23+x45 <=1 
C754: x23+x47 <=1 
C755: x23+x48 <=1 
C756: x23+x49 <=1 
C757: x23+x51-y23_51 <=1 
C758: x23+x52-y23_52 <=1 
C759: x23+x55 <=1 
C760: x23+x56 <=1 
C761: x23+x57 <=1 
C762: x23+x58 <=1 
C763: x23+x63 <=1 
C764: x23+x64 <=1 
C765: x24+x25-y24_25 <=1 
C766: x24+x28 <=1 
C767: x24+x29-y24_29 <=1 
C768: x24+x30 <=1 
C769: x24+x31-y24_31 <=1 
C770: x24+x32-y24_32 <=1 
C771: x24+x33 <=1 
C772: x24+x36-y24_36 <=1 
C773: x24+x37 <=1 
C774: x24+x38 <=1 
C775: x24+x39-y24_39 <=1 
C776: x24+x41 <=1 
C777: x24+x43-y24_43 <=1 
C778: x24+x46 <=1 
C779: x24+x47-y24_47 <=1 
C780: x24+x48-y24_48 <=1 
C781: x24+x49-y24_49 <=1 
C782: x24+x52 <=1 
C783: x24+x54 <=1 
C784: x24+x55-y24_55 <=1 
C785: x24+x60-y24_60 <=1 
C786: x24+x61-y24_61 <=1 
C787: x24+x62 <=1 
C788: x24+x63-y24_63 <=1 
C789: x24+x64 <=1 
C790: x25+x26 <=1 
C791: x25+x27 <=1 
C792: x25+x29-y25_29 <=1 
C793: x25+x30 <=1 
C794: x25+x35-y25_35 <=1 
C795: x25+x37 <=1 
C796: x25+x39 <=1 
C797: x25+x41 <=1 
C798: x25+x43-y25_43 <=1 
C799: x25+x44-y25_44 <=1 
C800: x25+x46-y25_46 <=1 
C801: x25+x47 <=1 
C802: x25+x48 <=1 
C803: x25+x49 <=1 
C804: x25+x50 <=1 
C805: x25+x51 <=1 
C806: x25+x54 <=1 
C807: x25+x58-y25_58 <=1 
C808: x25+x59 <=1 
C809: x25+x60 <=1 
C810: x25+x64 <=1 
C811: x26+x27 <=1 
C812: x26+x28-y26_28 <=1 
C813: x26+x29-y26_29 <=1 
C814: x26+x30-y26_30 <=1 
C815: x26+x34-y26_34 <=1 
C816: x26+x37 <=1 
C817: x26+x40-y26_40 <=1 
C818: x26+x42-y26_42 <=1 
C819: x26+x44-y26_44 <=1 
C820: x26+x45 <=1 
C821: x26+x48-y26_48 <=1 
C822: x26+x49-y26_49 <=1 
C823: x26+x51 <=1 
C824: x26+x52 <=1 
C825: x26+x54 <=1 
C826: x26+x55 <=1 
C827: x26+x59-y26_59 <=1 
C828: x26+x60-y26_60 <=1 
C829: x27+x28-y27_28 <=1 
C830: x27+x30 <=1 
C831: x27+x31 <=1 
C832: x27+x32-y27_32 <=1 
C833: x27+x34-y27_34 <=1 
C834: x27+x35-y27_35 <=1 
C835: x27+x36-y27_36 <=1 
C836: x27+x37-y27_37 <=1 
C837: x27+x38 <=1 
C838: x27+x41-y27_41 <=1 
C839: x27+x42 <=1 
C840: x27+x43 <=1 
C841: x27+x44 <=1 
C842: x27+x46 <=1 
C843: x27+x47-y27_47 <=1 
C844: x27+x48-y27_48 <=1 
C845: x27+x50-y27_50 <=1 
C846: x27+x51 <=1 
C847: x27+x53 <=1 
C848: x27+x56-y27_56 <=1 
C849: x27+x57 <=1 
C850: x27+x59-y27_59 <=1 
C851: x27+x60-y27_60 <=1 
C852: x27+x64 <=1 
C853: x28+x29 <=1 
C854: x28+x30 <=1 
C855: x28+x31 <=1 
C856: x28+x32 <=1 
C857: x28+x33-y28_33 <=1 
C858: x28+x37 <=1 
C859: x28+x39 <=1 
C860: x28+x42 <=1 
C861: x28+x43 <=1 
C862: x28+x44-y28_44 <=1 
C863: x28+x46-y28_46 <=1 
C864: x28+x50 <=1 
C865: x28+x51-y28_51 <=1 
C866: x28+x53 <=1 
C867: x28+x54 <=1 
C868: x28+x55 <=1 
C869: x28+x56 <=1 
C870: x28+x57-y28_57 <=1 
C871: x28+x58-y28_58 <=1 
C872: x28+x60 <=1 
C873: x28+x62-y28_62 <=1 
C874: x28+x63 <=1 
C875: x28+x64 <=1 
C876: x29+x32-y29_32 <=1 
C877: x29+x33 <=1 
C878: x29+x34-y29_34 <=1 
C879: x29+x37 <=1 
C880: x29+x38-y29_38 <=1 
C881: x29+x41 <=1 
C882: x29+x42-y29_42 <=1 
C883: x29+x43-y29_43 <=1 
C884: x29+x45-y29_45 <=1 
C885: x29+x47 <=1 
C886: x29+x48 <=1 
C887: x29+x49 <=1 
C888: x29+x51 <=1 
C889: x29+x53 <=1 
C890: x29+x55 <=1 
C891: x29+x57-y29_57 <=1 
C892: x29+x59 <=1 
C893: x29+x60 <=1 
C894: x29+x61 <=1 
C895: x29+x64 <=1 
C896: x30+x32-y30_32 <=1 
C897: x30+x33 <=1 
C898: x30+x34 <=1 
C899: x30+x35-y30_35 <=1 
C900: x30+x39 <=1 
C901: x30+x40-y30_40 <=1 
C902: x30+x42-y30_42 <=1 
C903: x30+x44-y30_44 <=1 
C904: x30+x45 <=1 
C905: x30+x46 <=1 
C906: x30+x47 <=1 
C907: x30+x48-y30_48 <=1 
C908: x30+x49-y30_49 <=1 
C909: x30+x52 <=1 
C910: x30+x53-y30_53 <=1 
C911: x30+x54-y30_54 <=1 
C912: x30+x55 <=1 
C913: x30+x56 <=1 
C914: x30+x57 <=1 
C915: x30+x59-y30_59 <=1 
C916: x30+x61 <=1 
C917: x30+x62-y30_62 <=1 
C918: x30+x63 <=1 
C919: x31+x32-y31_32 <=1 
C920: x31+x35 <=1 
C921: x31+x36-y31_36 <=1 
C922: x31+x39-y31_39 <=1 
C923: x31+x40-y31_40 <=1 
C924: x31+x43 <=1 
C925: x31+x44 <=1 
C926: x31+x46-y31_46 <=1 
C927: x31+x49-y31_49 <=1 
C928: x31+x52-y31_52 <=1 
C929: x31+x54-y31_54 <=1 
C930: x31+x55-y31_55 <=1 
C931: x31+x56-y31_56 <=1 
C932: x31+x58 <=1 
C933: x31+x59 <=1 
C934: x31+x60 <=1 
C935: x31+x61-y31_61 <=1 
C936: x31+x62 <=1 
C937: x31+x63 <=1 
C938: x32+x35-y32_35 <=1 
C939: x32+x36 <=1 
C940: x32+x40-y32_40 <=1 
C941: x32+x41-y32_41 <=1 
C942: x32+x42 <=1 
C943: x32+x43 <=1 
C944: x32+x44-y32_44 <=1 
C945: x32+x45 <=1 
C946: x32+x46-y32_46 <=1 
C947: x32+x47 <=1 
C948: x32+x48 <=1 
C949: x32+x53 <=1 
C950: x32+x54-y32_54 <=1 
C951: x32+x55-y32_55 <=1 
C952: x32+x56 <=1 
C953: x32+x57 <=1 
C954: x32+x58-y32_58 <=1 
C955: x32+x61-y32_61 <=1 
C956: x32+x62-y32_62 <=1 
C957: x33+x34 <=1 
C958: x33+x37-y33_37 <=1 
C959: x33+x40-y33_40 <=1 
C960: x33+x42 <=1 
C961: x33+x44 <=1 
C962: x33+x45-y33_45 <=1 
C963: x33+x46-y33_46 <=1 
C964: x33+x48 <=1 
C965: x33+x49-y33_49 <=1 
C966: x33+x50-y33_50 <=1 
C967: x33+x51 <=1 
C968: x33+x52 <=1 
C969: x33+x53 <=1 
C970: x33+x55 <=1 
C971: x33+x56 <=1 
C972: x33+x57 <=1 
C973: x33+x58-y33_58 <=1 
C974: x33+x59-y33_59 <=1 
C975: x33+x61-y33_61 <=1 
C976: x33+x62 <=1 
C977: x33+x63-y33_63 <=1 
C978: x33+x64 <=1 
C979: x34+x35-y34_35 <=1 
C980: x34+x36-y34_36 <=1 
C981: x34+x39 <=1 
C982: x34+x41 <=1 
C983: x34+x43-y34_43 <=1 
C984: x34+x44 <=1 
C985: x34+x45-y34_45 <=1 
C986: x34+x46-y34_46 <=1 
C987: x34+x49 <=1 
C988: x34+x50 <=1 
C989: x34+x52 <=1 
C990: x34+x54 <=1 
C991: x34+x55 <=1 
C992: x34+x57-y34_57 <=1 
C993: x34+x58-y34_58 <=1 
C994: x34+x59 <=1 
C995: x34+x60 <=1 
C996: x34+x62 <=1 
C997: x34+x63 <=1 
C998: x34+x64 <=1 
C999: x35+x38-y35_38 <=1 
C1000: x35+x39 <=1 
C1001: x35+x40 <=1 
C1002: x35+x41-y35_41 <=1 
C1003: x35+x42 <=1 
C1004: x35+x43-y35_43 <=1 
C1005: x35+x45-y35_45 <=1 
C1006: x35+x49-y35_49 <=1 
C1007: x35+x50 <=1 
C1008: x35+x51 <=1 
C1009: x35+x52 <=1 
C1010: x35+x53 <=1 
C1011: x35+x58-y35_58 <=1 
C1012: x35+x61-y35_61 <=1 
C1013: x35+x62 <=1 
C1014: x36+x39-y36_39 <=1 
C1015: x36+x40-y36_40 <=1 
C1016: x36+x42 <=1 
C1017: x36+x45-y36_45 <=1 
C1018: x36+x48 <=1 
C1019: x36+x51 <=1 
C1020: x36+x52-y36_52 <=1 
C1021: x36+x54 <=1 
C1022: x36+x55 <=1 
C1023: x36+x56 <=1 
C1024: x36+x58 <=1 
C1025: x36+x59 <=1 
C1026: x36+x60-y36_60 <=1 
C1027: x36+x61 <=1 
C1028: x36+x62-y36_62 <=1 
C1029: x37+x38-y37_38 <=1 
C1030: x37+x39-y37_39 <=1 
C1031: x37+x40-y37_40 <=1 
C1032: x37+x41 <=1 
C1033: x37+x42-y37_42 <=1 
C1034: x37+x44 <=1 
C1035: x37+x45 <=1 
C1036: x37+x48-y37_48 <=1 
C1037: x37+x49-y37_49 <=1 
C1038: x37+x50-y37_50 <=1 
C1039: x37+x52-y37_52 <=1 
C1040: x37+x54 <=1 
C1041: x37+x55-y37_55 <=1 
C1042: x37+x56-y37_56 <=1 
C1043: x37+x57-y37_57 <=1 
C1044: x37+x58-y37_58 <=1 
C1045: x37+x59-y37_59 <=1 
C1046: x37+x60-y37_60 <=1 
C1047: x37+x61-y37_61 <=1 
C1048: x37+x62 <=1 
C1049: x37+x63 <=1 
C1050: x38+x39 <=1 
C1051: x38+x41-y38_41 <=1 
C1052: x38+x43-y38_43 <=1 
C1053: x38+x44-y38_44 <=1 
C1054: x38+x45-y38_45 <=1 
C1055: x38+x48-y38_48 <=1 
C1056: x38+x49-y38_49 <=1 
C1057: x38+x51-y38_51 <=1 
C1058: x38+x52 <=1 
C1059: x38+x54 <=1 
C1060: x38+x55-y38_55 <=1 
C1061: x38+x59 <=1 
C1062: x38+x60-y38_60 <=1 
C1063: x38+x61-y38_61 <=1 
C1064: x38+x62-y38_62 <=1 
C1065: x38+x63 <=1 
C1066: x39+x40 <=1 
C1067: x39+x42 <=1 
C1068: x39+x43 <=1 
C1069: x39+x44-y39_44 <=1 
C1070: x39+x45 <=1 
C1071: x39+x46-y39_46 <=1 
C1072: x39+x47-y39_47 <=1 
C1073: x39+x52 <=1 
C1074: x39+x53-y39_53 <=1 
C1075: x39+x55-y39_55 <=1 
C1076: x39+x57-y39_57 <=1 
C1077: x39+x59 <=1 
C1078: x39+x60-y39_60 <=1 
C1079: x39+x61-y39_61 <=1 
C1080: x39+x62-y39_62 <=1 
C1081: x39+x63-y39_63 <=1 
C1082: x39+x64-y39_64 <=1 
C1083: x40+x41-y40_41 <=1 
C1084: x40+x42 <=1 
C1085: x40+x44-y40_44 <=1 
C1086: x40+x45-y40_45 <=1 
C1087: x40+x46-y40_46 <=1 
C1088: x40+x47-y40_47 <=1 
C1089: x40+x48 <=1 
C1090: x40+x51-y40_51 <=1 
C1091: x40+x52-y40_52 <=1 
C1092: x40+x54 <=1 
C1093: x40+x58-y40_58 <=1 
C1094: x40+x59-y40_59 <=1 
C1095: x40+x61 <=1 
C1096: x40+x62-y40_62 <=1 
C1097: x40+x63-y40_63 <=1 
C1098: x41+x42-y41_42 <=1 
C1099: x41+x43 <=1 
C1100: x41+x45-y41_45 <=1 
C1101: x41+x47-y41_47 <=1 
C1102: x41+x50-y41_50 <=1 
C1103: x41+x53-y41_53 <=1 
C1104: x41+x55 <=1 
C1105: x41+x56 <=1 
C1106: x41+x58-y41_58 <=1 
C1107: x41+x59 <=1 
C1108: x41+x60 <=1 
C1109: x41+x61-y41_61 <=1 
C1110: x41+x62-y41_62 <=1 
C1111: x42+x43-y42_43 <=1 
C1112: x42+x45-y42_45 <=1 
C1113: x42+x46-y42_46 <=1 
C1114: x42+x48 <=1 
C1115: x42+x52-y42_52 <=1 
C1116: x42+x54-y42_54 <=1 
C1117: x42+x55 <=1 
C1118: x42+x56-y42_56 <=1 
C1119: x42+x57 <=1 
C1120: x42+x58 <=1 
C1121: x42+x63 <=1 
C1122: x42+x64-y42_64 <=1 
C1123: x43+x44-y43_44 <=1 
C1124: x43+x45-y43_45 <=1 
C1125: x43+x46-y43_46 <=1 
C1126: x43+x47 <=1 
C1127: x43+x49-y43_49 <=1 
C1128: x43+x50-y43_50 <=1 
C1129: x43+x51 <=1 
C1130: x43+x53-y43_53 <=1 
C1131: x43+x55 <=1 
C1132: x43+x56-y43_56 <=1 
C1133: x43+x58-y43_58 <=1 
C1134: x43+x59 <=1 
C1135: x43+x60-y43_60 <=1 
C1136: x43+x61 <=1 
C1137: x43+x63-y43_63 <=1 
C1138: x43+x64 <=1 
C1139: x44+x45 <=1 
C1140: x44+x46-y44_46 <=1 
C1141: x44+x47-y44_47 <=1 
C1142: x44+x48 <=1 
C1143: x44+x51-y44_51 <=1 
C1144: x44+x53 <=1 
C1145: x44+x54-y44_54 <=1 
C1146: x44+x56 <=1 
C1147: x44+x61 <=1 
C1148: x44+x62-y44_62 <=1 
C1149: x44+x63-y44_63 <=1 
C1150: x44+x64 <=1 
C1151: x45+x46 <=1 
C1152: x45+x48 <=1 
C1153: x45+x52 <=1 
C1154: x45+x54-y45_54 <=1 
C1155: x45+x56 <=1 
C1156: x45+x57-y45_57 <=1 
C1157: x45+x58 <=1 
C1158: x45+x60-y45_60 <=1 
C1159: x45+x61-y45_61 <=1 
C1160: x45+x63-y45_63 <=1 
C1161: x46+x47-y46_47 <=1 
C1162: x46+x52-y46_52 <=1 
C1163: x46+x53-y46_53 <=1 
C1164: x46+x56-y46_56 <=1 
C1165: x46+x57-y46_57 <=1 
C1166: x46+x58-y46_58 <=1 
C1167: x46+x59-y46_59 <=1 
C1168: x46+x60 <=1 
C1169: x46+x61 <=1 
C1170: x46+x62-y46_62 <=1 
C1171: x46+x63-y46_63 <=1 
C1172: x47+x49 <=1 
C1173: x47+x50-y47_50 <=1 
C1174: x47+x51 <=1 
C1175: x47+x52 <=1 
C1176: x47+x53 <=1 
C1177: x47+x57-y47_57 <=1 
C1178: x47+x59 <=1 
C1179: x47+x60 <=1 
C1180: x47+x61 <=1 
C1181: x47+x62 <=1 
C1182: x48+x53 <=1 
C1183: x48+x54 <=1 
C1184: x48+x55 <=1 
C1185: x48+x57 <=1 
C1186: x48+x58-y48_58 <=1 
C1187: x48+x59 <=1 
C1188: x48+x62-y48_62 <=1 
C1189: x48+x63-y48_63 <=1 
C1190: x48+x64-y48_64 <=1 
C1191: x49+x50 <=1 
C1192: x49+x51-y49_51 <=1 
C1193: x49+x52 <=1 
C1194: x49+x55-y49_55 <=1 
C1195: x49+x56-y49_56 <=1 
C1196: x49+x57-y49_57 <=1 
C1197: x49+x58-y49_58 <=1 
C1198: x49+x59 <=1 
C1199: x49+x62 <=1 
C1200: x49+x63 <=1 
C1201: x49+x64 <=1 
C1202: x50+x52 <=1 
C1203: x50+x53 <=1 
C1204: x50+x55 <=1 
C1205: x50+x56 <=1 
C1206: x50+x58 <=1 
C1207: x50+x60-y50_60 <=1 
C1208: x50+x63 <=1 
C1209: x50+x64 <=1 
C1210: x51+x53 <=1 
C1211: x51+x55 <=1 
C1212: x51+x57 <=1 
C1213: x51+x58 <=1 
C1214: x51+x62-y51_62 <=1 
C1215: x51+x63 <=1 
C1216: x52+x53 <=1 
C1217: x52+x57 <=1 
C1218: x52+x58 <=1 
C1219: x52+x59-y52_59 <=1 
C1220: x52+x60-y52_60 <=1 
C1221: x52+x61-y52_61 <=1 
C1222: x52+x62 <=1 
C1223: x52+x63 <=1 
C1224: x52+x64-y52_64 <=1 
C1225: x53+x54-y53_54 <=1 
C1226: x53+x56-y53_56 <=1 
C1227: x53+x57-y53_57 <=1 
C1228: x53+x58-y53_58 <=1 
C1229: x53+x59-y53_59 <=1 
C1230: x53+x60-y53_60 <=1 
C1231: x53+x62-y53_62 <=1 
C1232: x53+x63 <=1 
C1233: x53+x64 <=1 
C1234: x54+x55 <=1 
C1235: x54+x56 <=1 
C1236: x54+x57 <=1 
C1237: x54+x59-y54_59 <=1 
C1238: x54+x60 <=1 
C1239: x54+x61 <=1 
C1240: x54+x64 <=1 
C1241: x55+x56-y55_56 <=1 
C1242: x55+x57-y55_57 <=1 
C1243: x55+x58-y55_58 <=1 
C1244: x55+x59 <=1 
C1245: x55+x61 <=1 
C1246: x55+x62 <=1 
C1247: x55+x63-y55_63 <=1 
C1248: x56+x58 <=1 
C1249: x56+x59 <=1 
C1250: x57+x58 <=1 
C1251: x57+x59 <=1 
C1252: x57+x61 <=1 
C1253: x57+x63-y57_63 <=1 
C1254: x57+x64-y57_64 <=1 
C1255: x58+x60 <=1 
C1256: x58+x62-y58_62 <=1 
C1257: x58+x63-y58_63 <=1 
C1258: x58+x64-y58_64 <=1 
C1259: x59+x62 <=1 
C1260: x59+x64-y59_64 <=1 
C1261: x60+x62 <=1 
C1262: x60+x64 <=1 
C1263: x61+x64 <=1 
C1264: x62+x64-y62_64 <=1 
C1265: x63+x64-y63_64 <=1 

binary
x0
x1
x2
x3
x4
x5
x6
x7
x8
x9
x10
x11
x12
x13
x14
x15
x16
x17
x18
x19
x20
x21
x22
x23
x24
x25
x26
x27
x28
x29
x30
x31
x32
x33
x34
x35
x36
x37
x38
x39
x40
x41
x42
x43
x44
x45
x46
x47
x48
x49
x50
x51
x52
x53
x54
x55
x56
x57
x58
x59
x60
x61
x62
x63
x64
