problem_generation/data/GISP/train/er_n=65_m=1265_p=0.60_SET2_setparam=100.00_alpha=0.50_473.sol
objective value:                                 1176
x2                                                  1 	(obj:100)
x5                                                  1 	(obj:100)
x17                                                 1 	(obj:100)
x20                                                 1 	(obj:100)
x31                                                 1 	(obj:100)
x37                                                 1 	(obj:100)
x46                                                 1 	(obj:100)
x48                                                 1 	(obj:100)
x51                                                 1 	(obj:100)
x52                                                 1 	(obj:100)
x56                                                 1 	(obj:100)
x64                                                 1 	(obj:100)
y17_48                                              1 	(obj:-1)
y5_64                                               1 	(obj:-1)
y20_48                                              1 	(obj:-1)
y31_52                                              1 	(obj:-1)
y17_37                                              1 	(obj:-1)
y31_56                                              1 	(obj:-1)
y20_51                                              1 	(obj:-1)
y20_37                                              1 	(obj:-1)
y52_64                                              1 	(obj:-1)
y37_48                                              1 	(obj:-1)
y37_52                                              1 	(obj:-1)
y37_56                                              1 	(obj:-1)
y17_51                                              1 	(obj:-1)
y2_52                                               1 	(obj:-1)
y17_46                                              1 	(obj:-1)
y2_56                                               1 	(obj:-1)
y20_46                                              1 	(obj:-1)
y31_46                                              1 	(obj:-1)
y20_64                                              1 	(obj:-1)
y17_31                                              1 	(obj:-1)
y5_37                                               1 	(obj:-1)
y46_52                                              1 	(obj:-1)
y46_56                                              1 	(obj:-1)
y48_64                                              1 	(obj:-1)
